Problem:    guia3_4
Rows:       18
Columns:    16 (16 integer, 16 binary)
Non-zeros:  79
Status:     INTEGER OPTIMAL
Objective:  z = 16100 (MINimum)

   No.   Row name        Activity     Lower bound   Upper bound
------ ------------    ------------- ------------- -------------
     1 z                       16100                             
     2 cantidadPersonas
                                   6             6             = 
     3 quimicos                    1             1               
     4 ingenieros                  3             1               
     5 contadores                  2             2               
     6 vidalSmithMin
                                  -1                          -0 
     7 vidalSmithMax
                                   1                           1 
     8 contadoresVS                2                           3 
     9 mentorAlumno                0                          -0 
    10 conflicto1                  0                           1 
    11 conflicto2                  1                           1 
    12 personalidadMin4
                                   0                          -0 
    13 personalidadMax4
                                   0                          -0 
    14 personalidadMin1
                                  -2                          -0 
    15 personalidadMax1
                                   0                          -0 
    16 personalidadConflicto
                                   1                           1 
    17 benevolentesMin
                                   0                          -0 
    18 benevolentesMax
                                   0                          -0 

   No. Column name       Activity     Lower bound   Upper bound
------ ------------    ------------- ------------- -------------
     1 Y[Y1]        *              1             0             1 
     2 Y[Y2]        *              0             0             1 
     3 Y[Y3]        *              1             0             1 
     4 Y[Y4]        *              0             0             1 
     5 Y[Y5]        *              1             0             1 
     6 Y[Y6]        *              0             0             1 
     7 Y[Y7]        *              1             0             1 
     8 Y[Y8]        *              0             0             1 
     9 Y[Y9]        *              1             0             1 
    10 Y[Y10]       *              1             0             1 
    11 Y[Y11]       *              0             0             1 
    12 Y[Y12]       *              0             0             1 
    13 C[C2]        *              0             0             1 
    14 C[C4]        *              0             0             1 
    15 C[C1]        *              1             0             1 
    16 VS           *              0             0             1 

Integer feasibility conditions:

KKT.PE: max.abs.err = 0.00e+00 on row 0
        max.rel.err = 0.00e+00 on row 0
        High quality

KKT.PB: max.abs.err = 0.00e+00 on row 0
        max.rel.err = 0.00e+00 on row 0
        High quality

End of output
